
Gurobi 9.1.1 (linux64) logging started Thu Oct 21 21:14:41 2021

Changed value of parameter LogFile to results/max3cut_numv144/max3cut_numv144_spinglass2pm_1212_A-MILO_log.txt
   Prev:   Default: 
Gurobi Optimizer version 9.1.1 build v9.1.1rc0 (linux64)
Thread count: 20 physical cores, 40 logical processors, using up to 10 threads
Optimize a model with 3024 rows, 720 columns and 8496 nonzeros
Model fingerprint: 0xc155e194
Variable types: 0 continuous, 720 integer (720 binary)
Coefficient statistics:
  Matrix range     [1e+00, 1e+00]
  Objective range  [1e+00, 1e+00]
  Bounds range     [1e+00, 1e+00]
  RHS range        [1e+00, 2e+00]
Found heuristic solution: objective 1.0000000
Presolve removed 325 rows and 7 columns
Presolve time: 0.01s
Presolved: 2699 rows, 713 columns, 8097 nonzeros
Crushed 0 out of 288 user cuts to presolved model
Variable types: 0 continuous, 713 integer (713 binary)

Root relaxation: objective 1.420000e+02, 495 iterations, 0.01 seconds

    Nodes    |    Current Node    |     Objective Bounds      |     Work
 Expl Unexpl |  Obj  Depth IntInf | Incumbent    BestBd   Gap | It/Node Time

     0     0  142.00000    0  248    1.00000  142.00000      -     -    0s
H    0     0                      90.0000000  142.00000  57.8%     -    0s
H    0     0                      93.0000000  142.00000  52.7%     -    0s
H    0     0                      95.0000000  142.00000  49.5%     -    0s
     0     0  141.00000    0  273   95.00000  141.00000  48.4%     -    0s
H    0     0                      98.0000000  141.00000  43.9%     -    0s
     0     0  140.66667    0  278   98.00000  140.66667  43.5%     -    0s
     0     0  138.86970    0  431   98.00000  138.86970  41.7%     -    0s
H    0     0                     100.0000000  138.86970  38.9%     -    0s
     0     0  138.50087    0  434  100.00000  138.50087  38.5%     -    0s
     0     0  138.48009    0  440  100.00000  138.48009  38.5%     -    0s
     0     0  138.47999    0  443  100.00000  138.47999  38.5%     -    0s
H    0     0                     101.0000000  138.47999  37.1%     -    0s
H    0     0                     103.0000000  138.47999  34.4%     -    0s
     0     0  136.23687    0  456  103.00000  136.23687  32.3%     -    0s
H    0     0                     105.0000000  136.23687  29.7%     -    0s
     0     0  135.67434    0  459  105.00000  135.67434  29.2%     -    0s
     0     0  135.63889    0  454  105.00000  135.63889  29.2%     -    0s
     0     0  135.62015    0  459  105.00000  135.62015  29.2%     -    0s
     0     0  133.36689    0  440  105.00000  133.36689  27.0%     -    0s
     0     0  133.13333    0  429  105.00000  133.13333  26.8%     -    0s
     0     0  132.96162    0  440  105.00000  132.96162  26.6%     -    0s
     0     0  132.96162    0  444  105.00000  132.96162  26.6%     -    0s
H    0     0                     109.0000000  132.96162  22.0%     -    0s
     0     0  131.81495    0  452  109.00000  131.81495  20.9%     -    0s
H    0     0                     111.0000000  131.81495  18.8%     -    0s
     0     0  131.75587    0  445  111.00000  131.75587  18.7%     -    0s
     0     0  131.75506    0  442  111.00000  131.75506  18.7%     -    0s
     0     0  131.29184    0  443  111.00000  131.29184  18.3%     -    0s
     0     0  131.27189    0  445  111.00000  131.27189  18.3%     -    0s
     0     0  131.23968    0  433  111.00000  131.23968  18.2%     -    0s
     0     0  131.20442    0  447  111.00000  131.20442  18.2%     -    0s
     0     0  131.19569    0  449  111.00000  131.19569  18.2%     -    0s
     0     0  131.18168    0  454  111.00000  131.18168  18.2%     -    0s
     0     0  130.92262    0  441  111.00000  130.92262  17.9%     -    0s
H    0     0                     113.0000000  130.92262  15.9%     -    0s
     0     0  130.88095    0  439  113.00000  130.88095  15.8%     -    0s
     0     0  130.86493    0  442  113.00000  130.86493  15.8%     -    0s
     0     0  130.86012    0  441  113.00000  130.86012  15.8%     -    0s
     0     0  130.86012    0  439  113.00000  130.86012  15.8%     -    0s
     0     0  130.59969    0  446  113.00000  130.59969  15.6%     -    0s
     0     0  130.59196    0  450  113.00000  130.59196  15.6%     -    0s
     0     0  130.58862    0  465  113.00000  130.58862  15.6%     -    0s
     0     0  130.58862    0  466  113.00000  130.58862  15.6%     -    0s
     0     0  129.84189    0  446  113.00000  129.84189  14.9%     -    0s
     0     0  129.82305    0  458  113.00000  129.82305  14.9%     -    0s
     0     0  129.80503    0  456  113.00000  129.80503  14.9%     -    0s
     0     0  129.80226    0  463  113.00000  129.80226  14.9%     -    0s
     0     0  129.60553    0  451  113.00000  129.60553  14.7%     -    0s
     0     0  129.57698    0  447  113.00000  129.57698  14.7%     -    0s
H    0     0                     114.0000000  129.57698  13.7%     -    0s
     0     0  129.57099    0  447  114.00000  129.57099  13.7%     -    0s
     0     0  129.57099    0  458  114.00000  129.57099  13.7%     -    0s
     0     0  129.23511    0  461  114.00000  129.23511  13.4%     -    0s
H    0     0                     116.0000000  129.23511  11.4%     -    0s
     0     0  129.22714    0  462  116.00000  129.22714  11.4%     -    0s
     0     0  129.22234    0  463  116.00000  129.22234  11.4%     -    0s
     0     0  129.22206    0  463  116.00000  129.22206  11.4%     -    0s
     0     0  129.12261    0  459  116.00000  129.12261  11.3%     -    1s
     0     0  129.08308    0  456  116.00000  129.08308  11.3%     -    1s
     0     0  129.07895    0  458  116.00000  129.07895  11.3%     -    1s
     0     0  129.07895    0  457  116.00000  129.07895  11.3%     -    1s
     0     0  129.03742    0  463  116.00000  129.03742  11.2%     -    1s
     0     0  129.00420    0  463  116.00000  129.00420  11.2%     -    1s
     0     0  129.00420    0  463  116.00000  129.00420  11.2%     -    1s
     0     0  129.00415    0  465  116.00000  129.00415  11.2%     -    1s
     0     0  128.99981    0  463  116.00000  128.99981  11.2%     -    1s
     0     0  128.99981    0  463  116.00000  128.99981  11.2%     -    1s
     0     0  128.93224    0  458  116.00000  128.93224  11.1%     -    1s
     0     0  128.93224    0  452  116.00000  128.93224  11.1%     -    1s
     0     0  128.85666    0  445  116.00000  128.85666  11.1%     -    1s
     0     0  128.85666    0  452  116.00000  128.85666  11.1%     -    1s
     0     0  128.84243    0  460  116.00000  128.84243  11.1%     -    1s
     0     0  128.84226    0  459  116.00000  128.84226  11.1%     -    1s
     0     0  128.81911    0  453  116.00000  128.81911  11.1%     -    1s
     0     0  128.81911    0  425  116.00000  128.81911  11.1%     -    1s
     0     2  128.81911    0  418  116.00000  128.81911  11.1%     -    1s
H   71    84                     117.0000000  126.82622  8.40%   142    1s
H  181   193                     118.0000000  126.82622  7.48%   111    1s
H  274   237                     119.0000000  126.82622  6.58%   100    2s
H  350   278                     120.0000000  126.82622  5.69%  94.4    2s
  3281  1451  123.60802    9  424  120.00000  124.83400  4.03%  88.4    5s

Cutting planes:
  Gomory: 11
  Clique: 1
  MIR: 7
  StrongCG: 1
  Flow cover: 21
  Zero half: 51
  RLT: 12

Explored 3311 nodes (313168 simplex iterations) in 6.68 seconds
Thread count was 10 (of 40 available processors)

Solution count 10: 120 119 118 ... 105

Optimal solution found (tolerance 0.00e+00)
Best objective 1.200000000000e+02, best bound 1.200000000000e+02, gap 0.0000%
